language ESSENCE' 1.0
letting w be 6
letting n be 42
letting noCrates be 2
letting noGoals be 2
letting pInit be 16
letting stps be 6
letting crates be [15, 14]
letting goals be [14, 9]
letting noWalls be 22
letting walls be [0, 1, 2, 3, 4, 5, 6, 11, 12, 17, 18, 23, 24, 29, 30, 35, 36, 37, 38, 39, 40, 41]